c The introduced variables begin at 11.
c 1->a1
c 2->a2
c 3->a3
c 4->a4
c 5->a5
p cnf 9 13
11 -4 -5 0
-11 4 0
-11 5 0
12 -3 -11 0
-12 3 0
-12 11 0
13 -2 -12 0
-13 2 0
-13 12 0
-14 1 13 0
14 -1 0
14 -13 0
14 0
